c turning on binary mode checking
c parsing input formula with 202048 variables and 780980 clauses
c finished parsing, read 2696669 bytes from proof file
c detected empty clause; start verification via backward checking
c 5679 of 780980 clauses in core                            
c 2141 of 102411 lemmas in core using 66142 resolution steps
c 0 RAT lemmas in core; 345 redundant literals in core lemmas
s VERIFIED
c verification time: 0.989 seconds
